(set-logic HORN)

(declare-fun state ((Array Int (Array Int Int)) Int Int Int Int Int Bool Bool Bool) Bool)


(assert (forall ((|!{a1.1}| (Array Int (Array Int Int))) (|!{M}| Int) (|!{N}| Int) (|!{c}| Int) (|!{i}| Int) (|!{j}| Int) (|!pc[0]| Bool) (|!pc[1]| Bool) (|!pc[2]| Bool))
  (=>
   (let ((.def_44 (not |!pc[2]|)))
(let ((.def_42 (not |!pc[1]|)))
(let ((.def_41 (not |!pc[0]|)))
(let ((.def_43 (and .def_41 .def_42)))
(let ((.def_45 (and .def_43 .def_44)))
.def_45)))))
   (state |!{a1.1}| |!{M}| |!{N}| |!{c}| |!{i}| |!{j}| |!pc[0]| |!pc[1]| |!pc[2]|))))

(assert (forall ((|!{a1.1}| (Array Int (Array Int Int))) (|!{M}| Int) (|!{N}| Int) (|!{c}| Int) (|!{i}| Int) (|!{j}| Int) (|!pc[0]| Bool) (|!pc[1]| Bool) (|!pc[2]| Bool)
                 (|!{a1.1}.next| (Array Int (Array Int Int))) (|!{M}.next| Int) (|!{N}.next| Int) (|!{c}.next| Int) (|!{i}.next| Int) (|!{j}.next| Int) (|!pc[0].next| Bool) (|!pc[1].next| Bool) (|!pc[2].next| Bool)
                 (|%{j}#1| Int) (|%{a1.1}#1| (Array Int (Array Int Int))) (nd_int<0> Int) (nd<0> Int))
  (=>
   (and (state |!{a1.1}| |!{M}| |!{N}| |!{c}| |!{i}| |!{j}| |!pc[0]| |!pc[1]| |!pc[2]|)
(let ((.def_41 (not |!pc[0]|)))
(let ((.def_97 (and |!pc[1]| .def_41)))
(let ((.def_168 (and |!pc[2]| .def_97)))
(let ((.def_72 (not |!pc[2].next|)))
(let ((.def_70 (not |!pc[1].next|)))
(let ((.def_71 (and |!pc[0].next| .def_70)))
(let ((.def_73 (and .def_71 .def_72)))
(let ((.def_171 (and .def_73 .def_168)))
(let ((.def_131 (* (- 1) |!{i}.next|)))
(let ((.def_132 (+ |!{i}| .def_131)))
(let ((.def_133 (= .def_132 (- 1))))
(let ((.def_83 (= |!{c}| |!{c}.next|)))
(let ((.def_81 (= |!{N}| |!{N}.next|)))
(let ((.def_79 (= |!{M}| |!{M}.next|)))
(let ((.def_78 (= |!{a1.1}| |!{a1.1}.next|)))
(let ((.def_80 (and .def_78 .def_79)))
(let ((.def_82 (and .def_80 .def_81)))
(let ((.def_84 (and .def_82 .def_83)))
(let ((.def_134 (and .def_84 .def_133)))
(let ((.def_95 (= |!{j}| |!{j}.next|)))
(let ((.def_135 (and .def_95 .def_134)))
(let ((.def_110 (<= |!{M}| |!{j}|)))
(let ((.def_136 (and .def_110 .def_135)))
(let ((.def_172 (and .def_136 .def_171)))
(let ((.def_103 (not |!pc[0].next|)))
(let ((.def_145 (and |!pc[1].next| .def_103)))
(let ((.def_160 (and |!pc[2].next| .def_145)))
(let ((.def_169 (and .def_160 .def_168)))
(let ((.def_126 (* (- 1) |!{j}.next|)))
(let ((.def_127 (+ |!{j}| .def_126)))
(let ((.def_128 (= .def_127 (- 1))))
(let ((.def_85 (= |!{i}| |!{i}.next|)))
(let ((.def_86 (and .def_84 .def_85)))
(let ((.def_129 (and .def_86 .def_128)))
(let ((.def_111 (not .def_110)))
(let ((.def_130 (and .def_111 .def_129)))
(let ((.def_170 (and .def_130 .def_169)))
(let ((.def_173 (or .def_170 .def_172)))
(let ((.def_42 (not |!pc[1]|)))
(let ((.def_151 (and |!pc[0]| .def_42)))
(let ((.def_44 (not |!pc[2]|)))
(let ((.def_159 (and .def_44 .def_151)))
(let ((.def_146 (and .def_72 .def_145)))
(let ((.def_163 (and .def_146 .def_159)))
(let ((.def_65 (= |!{i}.next| 0)))
(let ((.def_156 (and .def_65 .def_84)))
(let ((.def_157 (and .def_95 .def_156)))
(let ((.def_76 (<= |!{N}| |!{i}|)))
(let ((.def_158 (and .def_76 .def_157)))
(let ((.def_164 (and .def_158 .def_163)))
(let ((.def_161 (and .def_159 .def_160)))
(let ((.def_87 (= |!{j}.next| 0)))
(let ((.def_88 (and .def_86 .def_87)))
(let ((.def_77 (not .def_76)))
(let ((.def_89 (and .def_77 .def_88)))
(let ((.def_162 (and .def_89 .def_161)))
(let ((.def_165 (or .def_162 .def_164)))
(let ((.def_152 (and |!pc[2]| .def_151)))
(let ((.def_139 (and |!pc[2].next| .def_71)))
(let ((.def_153 (and .def_139 .def_152)))
(let ((.def_122 (and .def_86 .def_95)))
(let ((.def_154 (and .def_122 .def_153)))
(let ((.def_137 (and |!pc[0]| |!pc[1]|)))
(let ((.def_138 (and .def_44 .def_137)))
(let ((.def_147 (and .def_138 .def_146)))
(let ((.def_148 (and .def_136 .def_147)))
(let ((.def_99 (and |!pc[0].next| |!pc[1].next|)))
(let ((.def_100 (and .def_72 .def_99)))
(let ((.def_142 (and .def_100 .def_138)))
(let ((.def_143 (and .def_130 .def_142)))
(let ((.def_140 (and .def_138 .def_139)))
(let ((.def_112 (select |!{a1.1}| |!{i}|)))
(let ((.def_113 (select .def_112 |!{j}|)))
(let ((.def_114 (<= |!{c}| .def_113)))
(let ((.def_115 (not .def_114)))
(let ((.def_123 (and .def_115 .def_122)))
(let ((.def_124 (and .def_111 .def_123)))
(let ((.def_141 (and .def_124 .def_140)))
(let ((.def_144 (or .def_141 .def_143)))
(let ((.def_149 (or .def_144 .def_148)))
(let ((.def_104 (and .def_70 .def_103)))
(let ((.def_105 (and |!pc[2].next| .def_104)))
(let ((.def_98 (and .def_44 .def_97)))
(let ((.def_106 (and .def_98 .def_105)))
(let ((.def_90 (and .def_76 .def_78)))
(let ((.def_91 (and .def_79 .def_90)))
(let ((.def_92 (and .def_81 .def_91)))
(let ((.def_93 (and .def_83 .def_92)))
(let ((.def_94 (and .def_85 .def_93)))
(let ((.def_96 (and .def_94 .def_95)))
(let ((.def_107 (and .def_96 .def_106)))
(let ((.def_101 (and .def_98 .def_100)))
(let ((.def_102 (and .def_89 .def_101)))
(let ((.def_108 (or .def_102 .def_107)))
(let ((.def_43 (and .def_41 .def_42)))
(let ((.def_45 (and .def_43 .def_44)))
(let ((.def_74 (and .def_45 .def_73)))
(let ((.def_67 (= |!{j}.next| |%{j}#1|)))
(let ((.def_63 (= |!{c}.next| nd<0>)))
(let ((.def_61 (= |!{N}.next| nd_int<0>)))
(let ((.def_59 (= |!{M}.next| nd_int<0>)))
(let ((.def_58 (= |!{a1.1}.next| |%{a1.1}#1|)))
(let ((.def_60 (and .def_58 .def_59)))
(let ((.def_62 (and .def_60 .def_61)))
(let ((.def_64 (and .def_62 .def_63)))
(let ((.def_66 (and .def_64 .def_65)))
(let ((.def_68 (and .def_66 .def_67)))
(let ((.def_56 (<= nd_int<0> 0)))
(let ((.def_57 (not .def_56)))
(let ((.def_69 (and .def_57 .def_68)))
(let ((.def_75 (and .def_69 .def_74)))
(let ((.def_109 (or .def_75 .def_108)))
(let ((.def_150 (or .def_109 .def_149)))
(let ((.def_155 (or .def_150 .def_154)))
(let ((.def_166 (or .def_155 .def_165)))
(let ((.def_174 (or .def_166 .def_173)))
.def_174))))))))))))))))))))))))))))))))))))))))))))))))))))))))))))))))))))))))))))))))))))))))))))))))))))))))))))))))))))
   ) (state |!{a1.1}.next| |!{M}.next| |!{N}.next| |!{c}.next| |!{i}.next| |!{j}.next| |!pc[0].next| |!pc[1].next| |!pc[2].next|))))

(assert (forall ((|!{a1.1}| (Array Int (Array Int Int))) (|!{M}| Int) (|!{N}| Int) (|!{c}| Int) (|!{i}| Int) (|!{j}| Int) (|!pc[0]| Bool) (|!pc[1]| Bool) (|!pc[2]| Bool))
  (=> (state |!{a1.1}| |!{M}| |!{N}| |!{c}| |!{i}| |!{j}| |!pc[0]| |!pc[1]| |!pc[2]|)
(let ((.def_42 (not |!pc[1]|)))
(let ((.def_151 (and |!pc[0]| .def_42)))
(let ((.def_152 (and |!pc[2]| .def_151)))
(let ((.def_175 (not .def_152)))
.def_175))))
)))

(check-sat)
